certificates/rado_a15_c9_N121.cnf
c Rad2 upper bound instance: x1 + 15*x2 - x3 = 9, interval [1,121]
p cnf 121 1000
1 7 0
-1 -7 0
1 2 22 0
-1 -2 -22 0
1 3 37 0
-1 -3 -37 0
1 4 52 0
-1 -4 -52 0
1 5 67 0
-1 -5 -67 0
1 6 82 0
-1 -6 -82 0
1 7 97 0
-1 -7 -97 0
1 8 112 0
-1 -8 -112 0
1 2 8 0
-1 -2 -8 0
2 23 0
-2 -23 0
2 3 38 0
-2 -3 -38 0
2 4 53 0
-2 -4 -53 0
2 5 68 0
-2 -5 -68 0
2 6 83 0
-2 -6 -83 0
2 7 98 0
-2 -7 -98 0
2 8 113 0
-2 -8 -113 0
1 3 9 0
-1 -3 -9 0
2 3 24 0
-2 -3 -24 0
3 39 0
-3 -39 0
3 4 54 0
-3 -4 -54 0
3 5 69 0
-3 -5 -69 0
3 6 84 0
-3 -6 -84 0
3 7 99 0
-3 -7 -99 0
3 8 114 0
-3 -8 -114 0
1 4 10 0
-1 -4 -10 0
2 4 25 0
-2 -4 -25 0
3 4 40 0
-3 -4 -40 0
4 55 0
-4 -55 0
4 5 70 0
-4 -5 -70 0
4 6 85 0
-4 -6 -85 0
4 7 100 0
-4 -7 -100 0
4 8 115 0
-4 -8 -115 0
1 5 11 0
-1 -5 -11 0
2 5 26 0
-2 -5 -26 0
3 5 41 0
-3 -5 -41 0
4 5 56 0
-4 -5 -56 0
5 71 0
-5 -71 0
5 6 86 0
-5 -6 -86 0
5 7 101 0
-5 -7 -101 0
5 8 116 0
-5 -8 -116 0
1 6 12 0
-1 -6 -12 0
2 6 27 0
-2 -6 -27 0
3 6 42 0
-3 -6 -42 0
4 6 57 0
-4 -6 -57 0
5 6 72 0
-5 -6 -72 0
6 87 0
-6 -87 0
6 7 102 0
-6 -7 -102 0
6 8 117 0
-6 -8 -117 0
1 7 13 0
-1 -7 -13 0
2 7 28 0
-2 -7 -28 0
3 7 43 0
-3 -7 -43 0
4 7 58 0
-4 -7 -58 0
5 7 73 0
-5 -7 -73 0
6 7 88 0
-6 -7 -88 0
7 103 0
-7 -103 0
7 8 118 0
-7 -8 -118 0
1 8 14 0
-1 -8 -14 0
2 8 29 0
-2 -8 -29 0
3 8 44 0
-3 -8 -44 0
4 8 59 0
-4 -8 -59 0
5 8 74 0
-5 -8 -74 0
6 8 89 0
-6 -8 -89 0
7 8 104 0
-7 -8 -104 0
8 119 0
-8 -119 0
1 9 15 0
-1 -9 -15 0
2 9 30 0
-2 -9 -30 0
3 9 45 0
-3 -9 -45 0
4 9 60 0
-4 -9 -60 0
5 9 75 0
-5 -9 -75 0
6 9 90 0
-6 -9 -90 0
7 9 105 0
-7 -9 -105 0
8 9 120 0
-8 -9 -120 0
1 10 16 0
-1 -10 -16 0
2 10 31 0
-2 -10 -31 0
3 10 46 0
-3 -10 -46 0
4 10 61 0
-4 -10 -61 0
5 10 76 0
-5 -10 -76 0
6 10 91 0
-6 -10 -91 0
7 10 106 0
-7 -10 -106 0
8 10 121 0
-8 -10 -121 0
1 11 17 0
-1 -11 -17 0
2 11 32 0
-2 -11 -32 0
3 11 47 0
-3 -11 -47 0
4 11 62 0
-4 -11 -62 0
5 11 77 0
-5 -11 -77 0
6 11 92 0
-6 -11 -92 0
7 11 107 0
-7 -11 -107 0
1 12 18 0
-1 -12 -18 0
2 12 33 0
-2 -12 -33 0
3 12 48 0
-3 -12 -48 0
4 12 63 0
-4 -12 -63 0
5 12 78 0
-5 -12 -78 0
6 12 93 0
-6 -12 -93 0
7 12 108 0
-7 -12 -108 0
1 13 19 0
-1 -13 -19 0
2 13 34 0
-2 -13 -34 0
3 13 49 0
-3 -13 -49 0
4 13 64 0
-4 -13 -64 0
5 13 79 0
-5 -13 -79 0
6 13 94 0
-6 -13 -94 0
7 13 109 0
-7 -13 -109 0
1 14 20 0
-1 -14 -20 0
2 14 35 0
-2 -14 -35 0
3 14 50 0
-3 -14 -50 0
4 14 65 0
-4 -14 -65 0
5 14 80 0
-5 -14 -80 0
6 14 95 0
-6 -14 -95 0
7 14 110 0
-7 -14 -110 0
1 15 21 0
-1 -15 -21 0
2 15 36 0
-2 -15 -36 0
3 15 51 0
-3 -15 -51 0
4 15 66 0
-4 -15 -66 0
5 15 81 0
-5 -15 -81 0
6 15 96 0
-6 -15 -96 0
7 15 111 0
-7 -15 -111 0
1 16 22 0
-1 -16 -22 0
2 16 37 0
-2 -16 -37 0
3 16 52 0
-3 -16 -52 0
4 16 67 0
-4 -16 -67 0
5 16 82 0
-5 -16 -82 0
6 16 97 0
-6 -16 -97 0
7 16 112 0
-7 -16 -112 0
1 17 23 0
-1 -17 -23 0
2 17 38 0
-2 -17 -38 0
3 17 53 0
-3 -17 -53 0
4 17 68 0
-4 -17 -68 0
5 17 83 0
-5 -17 -83 0
6 17 98 0
-6 -17 -98 0
7 17 113 0
-7 -17 -113 0
1 18 24 0
-1 -18 -24 0
2 18 39 0
-2 -18 -39 0
3 18 54 0
-3 -18 -54 0
4 18 69 0
-4 -18 -69 0
5 18 84 0
-5 -18 -84 0
6 18 99 0
-6 -18 -99 0
7 18 114 0
-7 -18 -114 0
1 19 25 0
-1 -19 -25 0
2 19 40 0
-2 -19 -40 0
3 19 55 0
-3 -19 -55 0
4 19 70 0
-4 -19 -70 0
5 19 85 0
-5 -19 -85 0
6 19 100 0
-6 -19 -100 0
7 19 115 0
-7 -19 -115 0
1 20 26 0
-1 -20 -26 0
2 20 41 0
-2 -20 -41 0
3 20 56 0
-3 -20 -56 0
4 20 71 0
-4 -20 -71 0
5 20 86 0
-5 -20 -86 0
6 20 101 0
-6 -20 -101 0
7 20 116 0
-7 -20 -116 0
1 21 27 0
-1 -21 -27 0
2 21 42 0
-2 -21 -42 0
3 21 57 0
-3 -21 -57 0
4 21 72 0
-4 -21 -72 0
5 21 87 0
-5 -21 -87 0
6 21 102 0
-6 -21 -102 0
7 21 117 0
-7 -21 -117 0
1 22 28 0
-1 -22 -28 0
2 22 43 0
-2 -22 -43 0
3 22 58 0
-3 -22 -58 0
4 22 73 0
-4 -22 -73 0
5 22 88 0
-5 -22 -88 0
6 22 103 0
-6 -22 -103 0
7 22 118 0
-7 -22 -118 0
1 23 29 0
-1 -23 -29 0
2 23 44 0
-2 -23 -44 0
3 23 59 0
-3 -23 -59 0
4 23 74 0
-4 -23 -74 0
5 23 89 0
-5 -23 -89 0
6 23 104 0
-6 -23 -104 0
7 23 119 0
-7 -23 -119 0
1 24 30 0
-1 -24 -30 0
2 24 45 0
-2 -24 -45 0
3 24 60 0
-3 -24 -60 0
4 24 75 0
-4 -24 -75 0
5 24 90 0
-5 -24 -90 0
6 24 105 0
-6 -24 -105 0
7 24 120 0
-7 -24 -120 0
1 25 31 0
-1 -25 -31 0
2 25 46 0
-2 -25 -46 0
3 25 61 0
-3 -25 -61 0
4 25 76 0
-4 -25 -76 0
5 25 91 0
-5 -25 -91 0
6 25 106 0
-6 -25 -106 0
7 25 121 0
-7 -25 -121 0
1 26 32 0
-1 -26 -32 0
2 26 47 0
-2 -26 -47 0
3 26 62 0
-3 -26 -62 0
4 26 77 0
-4 -26 -77 0
5 26 92 0
-5 -26 -92 0
6 26 107 0
-6 -26 -107 0
1 27 33 0
-1 -27 -33 0
2 27 48 0
-2 -27 -48 0
3 27 63 0
-3 -27 -63 0
4 27 78 0
-4 -27 -78 0
5 27 93 0
-5 -27 -93 0
6 27 108 0
-6 -27 -108 0
1 28 34 0
-1 -28 -34 0
2 28 49 0
-2 -28 -49 0
3 28 64 0
-3 -28 -64 0
4 28 79 0
-4 -28 -79 0
5 28 94 0
-5 -28 -94 0
6 28 109 0
-6 -28 -109 0
1 29 35 0
-1 -29 -35 0
2 29 50 0
-2 -29 -50 0
3 29 65 0
-3 -29 -65 0
4 29 80 0
-4 -29 -80 0
5 29 95 0
-5 -29 -95 0
6 29 110 0
-6 -29 -110 0
1 30 36 0
-1 -30 -36 0
2 30 51 0
-2 -30 -51 0
3 30 66 0
-3 -30 -66 0
4 30 81 0
-4 -30 -81 0
5 30 96 0
-5 -30 -96 0
6 30 111 0
-6 -30 -111 0
1 31 37 0
-1 -31 -37 0
2 31 52 0
-2 -31 -52 0
3 31 67 0
-3 -31 -67 0
4 31 82 0
-4 -31 -82 0
5 31 97 0
-5 -31 -97 0
6 31 112 0
-6 -31 -112 0
1 32 38 0
-1 -32 -38 0
2 32 53 0
-2 -32 -53 0
3 32 68 0
-3 -32 -68 0
4 32 83 0
-4 -32 -83 0
5 32 98 0
-5 -32 -98 0
6 32 113 0
-6 -32 -113 0
1 33 39 0
-1 -33 -39 0
2 33 54 0
-2 -33 -54 0
3 33 69 0
-3 -33 -69 0
4 33 84 0
-4 -33 -84 0
5 33 99 0
-5 -33 -99 0
6 33 114 0
-6 -33 -114 0
1 34 40 0
-1 -34 -40 0
2 34 55 0
-2 -34 -55 0
3 34 70 0
-3 -34 -70 0
4 34 85 0
-4 -34 -85 0
5 34 100 0
-5 -34 -100 0
6 34 115 0
-6 -34 -115 0
1 35 41 0
-1 -35 -41 0
2 35 56 0
-2 -35 -56 0
3 35 71 0
-3 -35 -71 0
4 35 86 0
-4 -35 -86 0
5 35 101 0
-5 -35 -101 0
6 35 116 0
-6 -35 -116 0
1 36 42 0
-1 -36 -42 0
2 36 57 0
-2 -36 -57 0
3 36 72 0
-3 -36 -72 0
4 36 87 0
-4 -36 -87 0
5 36 102 0
-5 -36 -102 0
6 36 117 0
-6 -36 -117 0
1 37 43 0
-1 -37 -43 0
2 37 58 0
-2 -37 -58 0
3 37 73 0
-3 -37 -73 0
4 37 88 0
-4 -37 -88 0
5 37 103 0
-5 -37 -103 0
6 37 118 0
-6 -37 -118 0
1 38 44 0
-1 -38 -44 0
2 38 59 0
-2 -38 -59 0
3 38 74 0
-3 -38 -74 0
4 38 89 0
-4 -38 -89 0
5 38 104 0
-5 -38 -104 0
6 38 119 0
-6 -38 -119 0
1 39 45 0
-1 -39 -45 0
2 39 60 0
-2 -39 -60 0
3 39 75 0
-3 -39 -75 0
4 39 90 0
-4 -39 -90 0
5 39 105 0
-5 -39 -105 0
6 39 120 0
-6 -39 -120 0
1 40 46 0
-1 -40 -46 0
2 40 61 0
-2 -40 -61 0
3 40 76 0
-3 -40 -76 0
4 40 91 0
-4 -40 -91 0
5 40 106 0
-5 -40 -106 0
6 40 121 0
-6 -40 -121 0
1 41 47 0
-1 -41 -47 0
2 41 62 0
-2 -41 -62 0
3 41 77 0
-3 -41 -77 0
4 41 92 0
-4 -41 -92 0
5 41 107 0
-5 -41 -107 0
1 42 48 0
-1 -42 -48 0
2 42 63 0
-2 -42 -63 0
3 42 78 0
-3 -42 -78 0
4 42 93 0
-4 -42 -93 0
5 42 108 0
-5 -42 -108 0
1 43 49 0
-1 -43 -49 0
2 43 64 0
-2 -43 -64 0
3 43 79 0
-3 -43 -79 0
4 43 94 0
-4 -43 -94 0
5 43 109 0
-5 -43 -109 0
1 44 50 0
-1 -44 -50 0
2 44 65 0
-2 -44 -65 0
3 44 80 0
-3 -44 -80 0
4 44 95 0
-4 -44 -95 0
5 44 110 0
-5 -44 -110 0
1 45 51 0
-1 -45 -51 0
2 45 66 0
-2 -45 -66 0
3 45 81 0
-3 -45 -81 0
4 45 96 0
-4 -45 -96 0
5 45 111 0
-5 -45 -111 0
1 46 52 0
-1 -46 -52 0
2 46 67 0
-2 -46 -67 0
3 46 82 0
-3 -46 -82 0
4 46 97 0
-4 -46 -97 0
5 46 112 0
-5 -46 -112 0
1 47 53 0
-1 -47 -53 0
2 47 68 0
-2 -47 -68 0
3 47 83 0
-3 -47 -83 0
4 47 98 0
-4 -47 -98 0
5 47 113 0
-5 -47 -113 0
1 48 54 0
-1 -48 -54 0
2 48 69 0
-2 -48 -69 0
3 48 84 0
-3 -48 -84 0
4 48 99 0
-4 -48 -99 0
5 48 114 0
-5 -48 -114 0
1 49 55 0
-1 -49 -55 0
2 49 70 0
-2 -49 -70 0
3 49 85 0
-3 -49 -85 0
4 49 100 0
-4 -49 -100 0
5 49 115 0
-5 -49 -115 0
1 50 56 0
-1 -50 -56 0
2 50 71 0
-2 -50 -71 0
3 50 86 0
-3 -50 -86 0
4 50 101 0
-4 -50 -101 0
5 50 116 0
-5 -50 -116 0
1 51 57 0
-1 -51 -57 0
2 51 72 0
-2 -51 -72 0
3 51 87 0
-3 -51 -87 0
4 51 102 0
-4 -51 -102 0
5 51 117 0
-5 -51 -117 0
1 52 58 0
-1 -52 -58 0
2 52 73 0
-2 -52 -73 0
3 52 88 0
-3 -52 -88 0
4 52 103 0
-4 -52 -103 0
5 52 118 0
-5 -52 -118 0
1 53 59 0
-1 -53 -59 0
2 53 74 0
-2 -53 -74 0
3 53 89 0
-3 -53 -89 0
4 53 104 0
-4 -53 -104 0
5 53 119 0
-5 -53 -119 0
1 54 60 0
-1 -54 -60 0
2 54 75 0
-2 -54 -75 0
3 54 90 0
-3 -54 -90 0
4 54 105 0
-4 -54 -105 0
5 54 120 0
-5 -54 -120 0
1 55 61 0
-1 -55 -61 0
2 55 76 0
-2 -55 -76 0
3 55 91 0
-3 -55 -91 0
4 55 106 0
-4 -55 -106 0
5 55 121 0
-5 -55 -121 0
1 56 62 0
-1 -56 -62 0
2 56 77 0
-2 -56 -77 0
3 56 92 0
-3 -56 -92 0
4 56 107 0
-4 -56 -107 0
1 57 63 0
-1 -57 -63 0
2 57 78 0
-2 -57 -78 0
3 57 93 0
-3 -57 -93 0
4 57 108 0
-4 -57 -108 0
1 58 64 0
-1 -58 -64 0
2 58 79 0
-2 -58 -79 0
3 58 94 0
-3 -58 -94 0
4 58 109 0
-4 -58 -109 0
1 59 65 0
-1 -59 -65 0
2 59 80 0
-2 -59 -80 0
3 59 95 0
-3 -59 -95 0
4 59 110 0
-4 -59 -110 0
1 60 66 0
-1 -60 -66 0
2 60 81 0
-2 -60 -81 0
3 60 96 0
-3 -60 -96 0
4 60 111 0
-4 -60 -111 0
1 61 67 0
-1 -61 -67 0
2 61 82 0
-2 -61 -82 0
3 61 97 0
-3 -61 -97 0
4 61 112 0
-4 -61 -112 0
1 62 68 0
-1 -62 -68 0
2 62 83 0
-2 -62 -83 0
3 62 98 0
-3 -62 -98 0
4 62 113 0
-4 -62 -113 0
1 63 69 0
-1 -63 -69 0
2 63 84 0
-2 -63 -84 0
3 63 99 0
-3 -63 -99 0
4 63 114 0
-4 -63 -114 0
1 64 70 0
-1 -64 -70 0
2 64 85 0
-2 -64 -85 0
3 64 100 0
-3 -64 -100 0
4 64 115 0
-4 -64 -115 0
1 65 71 0
-1 -65 -71 0
2 65 86 0
-2 -65 -86 0
3 65 101 0
-3 -65 -101 0
4 65 116 0
-4 -65 -116 0
1 66 72 0
-1 -66 -72 0
2 66 87 0
-2 -66 -87 0
3 66 102 0
-3 -66 -102 0
4 66 117 0
-4 -66 -117 0
1 67 73 0
-1 -67 -73 0
2 67 88 0
-2 -67 -88 0
3 67 103 0
-3 -67 -103 0
4 67 118 0
-4 -67 -118 0
1 68 74 0
-1 -68 -74 0
2 68 89 0
-2 -68 -89 0
3 68 104 0
-3 -68 -104 0
4 68 119 0
-4 -68 -119 0
1 69 75 0
-1 -69 -75 0
2 69 90 0
-2 -69 -90 0
3 69 105 0
-3 -69 -105 0
4 69 120 0
-4 -69 -120 0
1 70 76 0
-1 -70 -76 0
2 70 91 0
-2 -70 -91 0
3 70 106 0
-3 -70 -106 0
4 70 121 0
-4 -70 -121 0
1 71 77 0
-1 -71 -77 0
2 71 92 0
-2 -71 -92 0
3 71 107 0
-3 -71 -107 0
1 72 78 0
-1 -72 -78 0
2 72 93 0
-2 -72 -93 0
3 72 108 0
-3 -72 -108 0
1 73 79 0
-1 -73 -79 0
2 73 94 0
-2 -73 -94 0
3 73 109 0
-3 -73 -109 0
1 74 80 0
-1 -74 -80 0
2 74 95 0
-2 -74 -95 0
3 74 110 0
-3 -74 -110 0
1 75 81 0
-1 -75 -81 0
2 75 96 0
-2 -75 -96 0
3 75 111 0
-3 -75 -111 0
1 76 82 0
-1 -76 -82 0
2 76 97 0
-2 -76 -97 0
3 76 112 0
-3 -76 -112 0
1 77 83 0
-1 -77 -83 0
2 77 98 0
-2 -77 -98 0
3 77 113 0
-3 -77 -113 0
1 78 84 0
-1 -78 -84 0
2 78 99 0
-2 -78 -99 0
3 78 114 0
-3 -78 -114 0
1 79 85 0
-1 -79 -85 0
2 79 100 0
-2 -79 -100 0
3 79 115 0
-3 -79 -115 0
1 80 86 0
-1 -80 -86 0
2 80 101 0
-2 -80 -101 0
3 80 116 0
-3 -80 -116 0
1 81 87 0
-1 -81 -87 0
2 81 102 0
-2 -81 -102 0
3 81 117 0
-3 -81 -117 0
1 82 88 0
-1 -82 -88 0
2 82 103 0
-2 -82 -103 0
3 82 118 0
-3 -82 -118 0
1 83 89 0
-1 -83 -89 0
2 83 104 0
-2 -83 -104 0
3 83 119 0
-3 -83 -119 0
1 84 90 0
-1 -84 -90 0
2 84 105 0
-2 -84 -105 0
3 84 120 0
-3 -84 -120 0
1 85 91 0
-1 -85 -91 0
2 85 106 0
-2 -85 -106 0
3 85 121 0
-3 -85 -121 0
1 86 92 0
-1 -86 -92 0
2 86 107 0
-2 -86 -107 0
1 87 93 0
-1 -87 -93 0
2 87 108 0
-2 -87 -108 0
1 88 94 0
-1 -88 -94 0
2 88 109 0
-2 -88 -109 0
1 89 95 0
-1 -89 -95 0
2 89 110 0
-2 -89 -110 0
1 90 96 0
-1 -90 -96 0
2 90 111 0
-2 -90 -111 0
1 91 97 0
-1 -91 -97 0
2 91 112 0
-2 -91 -112 0
1 92 98 0
-1 -92 -98 0
2 92 113 0
-2 -92 -113 0
1 93 99 0
-1 -93 -99 0
2 93 114 0
-2 -93 -114 0
1 94 100 0
-1 -94 -100 0
2 94 115 0
-2 -94 -115 0
1 95 101 0
-1 -95 -101 0
2 95 116 0
-2 -95 -116 0
1 96 102 0
-1 -96 -102 0
2 96 117 0
-2 -96 -117 0
1 97 103 0
-1 -97 -103 0
2 97 118 0
-2 -97 -118 0
1 98 104 0
-1 -98 -104 0
2 98 119 0
-2 -98 -119 0
1 99 105 0
-1 -99 -105 0
2 99 120 0
-2 -99 -120 0
1 100 106 0
-1 -100 -106 0
2 100 121 0
-2 -100 -121 0
1 101 107 0
-1 -101 -107 0
1 102 108 0
-1 -102 -108 0
1 103 109 0
-1 -103 -109 0
1 104 110 0
-1 -104 -110 0
1 105 111 0
-1 -105 -111 0
1 106 112 0
-1 -106 -112 0
1 107 113 0
-1 -107 -113 0
1 108 114 0
-1 -108 -114 0
1 109 115 0
-1 -109 -115 0
1 110 116 0
-1 -110 -116 0
1 111 117 0
-1 -111 -117 0
1 112 118 0
-1 -112 -118 0
1 113 119 0
-1 -113 -119 0
1 114 120 0
-1 -114 -120 0
1 115 121 0
-1 -115 -121 0
