certificates/rado_a15_c9_N121.drat
1 -118 8 0
-1 -121 0
-120 -121 0
-121 0
-7 0
1 0
103 0
25 0
-109 0
-97 0
-31 0
-19 0
13 0
5 0
115 0
-8 0
118 0
104 0
-67 0
-11 0
-71 0
-79 0
-91 0
-37 0
-49 0
-52 0
-38 0
119 0
10 0
-112 0
-110 0
-98 0
3 0
107 0
2 0
-113 0
-53 0
-16 0
-46 0
-76 0
-4 0
0
